HFSDDW
15	8	4
0	56	1	60	2	48	3	34
0	21	1	3	2	12	3	22
0	82	1	5	2	44	3	15
0	72	1	69	2	57	3	29
0	62	1	73	2	63	3	20
0	10	1	57	2	71	3	81
0	87	1	38	2	46	3	94
0	36	1	43	2	22	3	33
0	6	1	15	2	28	3	41
0	5	1	15	2	40	3	30
0	54	1	41	2	83	3	58
0	23	1	79	2	83	3	67
0	94	1	81	2	87	3	80
0	23	1	34	2	87	3	99
0	88	1	67	2	47	3	83
LBCmax: 481
RELDUE
-1	224	7	7
-1	34	2	6
-1	365	1	5
-1	143	8	9
-1	352	5	5
-1	9	4	1
-1	0	7	3
-1	229	3	5
-1	148	4	7
-1	31	6	7
-1	66	4	5
-1	176	4	7
-1	113	1	7
-1	115	3	3
-1	270	8	6
DDW
213	235
32	36
332	398
133	153
345	359
9	9
0	0
227	231
142	154
30	32
61	71
172	180
108	118
105	125
256	284
